NAME : in_house_8_23
TYPE : TSP
DIMENSION : 8
EDGE_WEIGHT_TYPE : EXPLICIT
EDGE_WEIGHT_FORMAT : UPPER_ROW
COMMENT : INVERSION_SHIFT=7
EDGE_WEIGHT_SECTION
54
10
25
58
21
50
33
33
42
5
24
8
8
15
23
52
61
24
23
58
30
25
9
23
20
16
57
10
